\ LP format - for model browsing. Use MPS format to capture full model detail.
Maximize
  250 C0(4) - 18.33333333333333 C1(2) - 175 Constant
Subject To
 c0: 15 C0(4) <= 1
 c1: 15 C0(4) - C1(2) <= 2
 c2: - 15 C0(4) + C1(2) <= 15
 c3: C0(4) <= 1
Bounds
 C1(2) free
 Constant = 1
End
